p cnf 130 438
18 41 57 0
47 59 72 0
36 46 52 0
7 12 34 62 0
61 84 0
32 43 0
58 65 69 0
28 29 79 110 0
37 53 0
8 63 0
31 49 0
66 76 80 0
25 27 83 0
23 60 0
21 22 0
17 55 56 0
14 15 54 73 0
5 10 11 33 35 0
4 42 50 0
39 68 124 0
3 74 78 0
85 86 89 0
19 91 92 0
94 95 0
16 38 96 0
9 13 24 64 97 0
98 99 0
100 101 102 0
51 103 104 0
40 105 106 0
77 107 0
26 75 81 82 108 109 0
-6 -84 0
-6 -58 0
-6 -29 0
-58 -84 0
-29 -84 0
-29 -58 0
-22 -60 0
-60 -73 0
-35 -60 0
-22 -73 0
-22 -35 0
-35 -73 0
-111 -112 0
-16 -111 0
-13 -111 0
-16 -112 0
-13 -112 0
-13 -16 0
-98 -100 0
-98 -114 0
-81 -98 0
-100 -114 0
-81 -100 0
-81 -114 0
-6 -60 0
-6 -111 0
-6 -98 0
-60 -111 0
-60 -98 0
-98 -111 0
-22 -84 0
-84 -112 0
-84 -100 0
-22 -112 0
-22 -100 0
-100 -112 0
-58 -73 0
-16 -58 0
-58 -114 0
-16 -73 0
-73 -114 0
-16 -114 0
-29 -35 0
-13 -29 0
-29 -81 0
-13 -35 0
-35 -81 0
-13 -81 0
-41 -115 0
-59 -115 0
-46 -115 0
-34 -115 0
-41 -59 0
-41 -46 0
-34 -41 0
-46 -59 0
-34 -59 0
-34 -46 0
-49 -116 0
-49 -117 0
-49 -76 0
-49 -83 0
-116 -117 0
-76 -116 0
-83 -116 0
-76 -117 0
-83 -117 0
-76 -83 0
-55 -118 0
-48 -118 0
-15 -118 0
-10 -118 0
-48 -55 0
-15 -55 0
-10 -55 0
-15 -48 0
-10 -48 0
-10 -15 0
-85 -91 0
-85 -94 0
-85 -96 0
-24 -85 0
-91 -94 0
-91 -96 0
-24 -91 0
-94 -96 0
-24 -94 0
-24 -96 0
-103 -105 0
-103 -107 0
-103 -121 0
-103 -108 0
-105 -107 0
-105 -121 0
-105 -108 0
-107 -121 0
-107 -108 0
-108 -121 0
-49 -115 0
-115 -118 0
-85 -115 0
-103 -115 0
-49 -118 0
-49 -85 0
-49 -103 0
-85 -118 0
-103 -118 0
-85 -103 0
-41 -116 0
-41 -55 0
-41 -91 0
-41 -105 0
-55 -116 0
-91 -116 0
-105 -116 0
-55 -91 0
-55 -105 0
-91 -105 0
-59 -117 0
-48 -59 0
-59 -94 0
-59 -107 0
-48 -117 0
-94 -117 0
-107 -117 0
-48 -94 0
-48 -107 0
-94 -107 0
-46 -76 0
-15 -46 0
-46 -96 0
-46 -121 0
-15 -76 0
-76 -96 0
-76 -121 0
-15 -96 0
-15 -121 0
-96 -121 0
-34 -83 0
-10 -34 0
-24 -34 0
-34 -108 0
-10 -83 0
-24 -83 0
-83 -108 0
-10 -24 0
-10 -108 0
-24 -108 0
-21 -23 0
-23 -33 0
-21 -33 0
-122 -123 0
-97 -122 0
-97 -123 0
-99 -101 0
-82 -99 0
-82 -101 0
-23 -122 0
-23 -99 0
-99 -122 0
-21 -123 0
-21 -101 0
-101 -123 0
-33 -97 0
-33 -82 0
-82 -97 0
-57 -120 0
-47 -120 0
-12 -120 0
-47 -57 0
-12 -57 0
-12 -47 0
-43 -125 0
-43 -126 0
-43 -79 0
-125 -126 0
-79 -125 0
-79 -126 0
-4 -68 0
-4 -127 0
-3 -4 0
-68 -127 0
-3 -68 0
-3 -127 0
-19 -86 0
-86 -95 0
-9 -86 0
-19 -95 0
-9 -19 0
-9 -95 0
-43 -120 0
-4 -120 0
-86 -120 0
-4 -43 0
-43 -86 0
-4 -86 0
-57 -125 0
-57 -68 0
-19 -57 0
-68 -125 0
-19 -125 0
-19 -68 0
-47 -126 0
-47 -127 0
-47 -95 0
-126 -127 0
-95 -126 0
-95 -127 0
-12 -79 0
-3 -12 0
-9 -12 0
-3 -79 0
-9 -79 0
-3 -9 0
-56 -119 0
-54 -119 0
-11 -119 0
-54 -56 0
-11 -56 0
-11 -54 0
-42 -124 0
-42 -67 0
-42 -78 0
-67 -124 0
-78 -124 0
-67 -78 0
-89 -92 0
-38 -89 0
-64 -89 0
-38 -92 0
-64 -92 0
-38 -64 0
-40 -51 0
-51 -70 0
-51 -75 0
-40 -70 0
-40 -75 0
-70 -75 0
-42 -119 0
-89 -119 0
-51 -119 0
-42 -89 0
-42 -51 0
-51 -89 0
-56 -124 0
-56 -92 0
-40 -56 0
-92 -124 0
-40 -124 0
-40 -92 0
-54 -67 0
-38 -54 0
-54 -70 0
-38 -67 0
-67 -70 0
-38 -70 0
-11 -78 0
-11 -64 0
-11 -75 0
-64 -78 0
-75 -78 0
-64 -75 0
-20 -87 0
-53 -87 0
-8 -87 0
-20 -53 0
-8 -20 0
-8 -53 0
-31 -44 0
-31 -66 0
-27 -31 0
-44 -66 0
-27 -44 0
-27 -66 0
-39 -50 0
-50 -71 0
-50 -74 0
-39 -71 0
-39 -74 0
-71 -74 0
-104 -106 0
-30 -104 0
-26 -104 0
-30 -106 0
-26 -106 0
-26 -30 0
-31 -87 0
-50 -87 0
-87 -104 0
-31 -50 0
-31 -104 0
-50 -104 0
-20 -44 0
-20 -39 0
-20 -106 0
-39 -44 0
-44 -106 0
-39 -106 0
-53 -66 0
-53 -71 0
-30 -53 0
-66 -71 0
-30 -66 0
-30 -71 0
-8 -27 0
-8 -74 0
-8 -26 0
-27 -74 0
-26 -27 0
-26 -74 0
-18 -88 0
-52 -88 0
-7 -88 0
-18 -52 0
-7 -18 0
-7 -52 0
-32 -45 0
-32 -65 0
-28 -32 0
-45 -65 0
-28 -45 0
-28 -65 0
-90 -93 0
-37 -90 0
-63 -90 0
-37 -93 0
-63 -93 0
-37 -63 0
-17 -128 0
-14 -128 0
-5 -128 0
-14 -17 0
-5 -17 0
-5 -14 0
-32 -88 0
-88 -90 0
-88 -128 0
-32 -90 0
-32 -128 0
-90 -128 0
-18 -45 0
-18 -93 0
-17 -18 0
-45 -93 0
-17 -45 0
-17 -93 0
-52 -65 0
-37 -52 0
-14 -52 0
-37 -65 0
-14 -65 0
-14 -37 0
-7 -28 0
-7 -63 0
-5 -7 0
-28 -63 0
-5 -28 0
-5 -63 0
-72 -129 0
-36 -129 0
-62 -129 0
-36 -72 0
-62 -72 0
-36 -62 0
-61 -130 0
-61 -69 0
-61 -110 0
-69 -130 0
-110 -130 0
-69 -110 0
-2 -113 0
-2 -80 0
-2 -25 0
-80 -113 0
-25 -113 0
-25 -80 0
-77 -102 0
-1 -102 0
-102 -109 0
-1 -77 0
-77 -109 0
-1 -109 0
-61 -129 0
-2 -129 0
-102 -129 0
-2 -61 0
-61 -102 0
-2 -102 0
-72 -130 0
-72 -113 0
-72 -77 0
-113 -130 0
-77 -130 0
-77 -113 0
-36 -69 0
-36 -80 0
-1 -36 0
-69 -80 0
-1 -69 0
-1 -80 0
-62 -110 0
-25 -62 0
-62 -109 0
-25 -110 0
-109 -110 0
-25 -109 0
